p cnf 272 1402
83 94 120 136 0
68 86 126 131 0
80 123 135 0
66 74 112 0
100 165 195 0
124 127 144 167 0
111 133 170 198 0
44 122 0
152 174 225 0
128 146 210 0
115 148 160 0
72 104 151 0
57 106 140 154 158 0
103 162 163 166 0
145 169 0
24 119 171 173 0
95 96 132 0
19 87 88 90 130 0
77 79 81 82 0
67 73 78 150 0
62 64 65 0
54 58 60 138 156 0
52 53 101 108 0
50 98 0
43 46 48 0
40 42 0
36 38 129 134 0
71 116 0
56 59 155 0
33 97 0
30 31 143 0
26 27 28 29 0
22 23 25 47 89 0
21 117 121 125 0
20 85 92 0
17 18 35 37 0
16 69 76 93 0
75 114 176 178 0
61 63 179 180 0
55 102 181 0
51 184 185 189 0
168 182 190 0
192 194 196 0
197 199 200 201 0
141 202 0
149 204 205 207 0
208 209 211 0
105 164 0
-126 -212 0
-126 -139 0
-139 -212 0
-103 -104 0
-104 -213 0
-103 -213 0
-25 -92 0
-25 -93 0
-92 -93 0
-104 -126 0
-25 -126 0
-25 -104 0
-103 -212 0
-92 -212 0
-92 -103 0
-139 -213 0
-93 -139 0
-93 -213 0
-131 -136 0
-135 -136 0
-74 -136 0
-136 -157 0
-131 -135 0
-74 -131 0
-131 -157 0
-74 -135 0
-135 -157 0
-74 -157 0
-144 -214 0
-170 -214 0
-214 -215 0
-174 -214 0
-144 -170 0
-144 -215 0
-144 -174 0
-170 -215 0
-170 -174 0
-174 -215 0
-98 -101 0
-101 -216 0
-48 -101 0
-101 -217 0
-98 -216 0
-48 -98 0
-98 -217 0
-48 -216 0
-216 -217 0
-48 -217 0
-38 -203 0
-38 -219 0
-38 -159 0
-31 -38 0
-203 -219 0
-159 -203 0
-31 -203 0
-159 -219 0
-31 -219 0
-31 -159 0
-197 -220 0
-197 -204 0
-197 -208 0
-105 -197 0
-204 -220 0
-208 -220 0
-105 -220 0
-204 -208 0
-105 -204 0
-105 -208 0
-136 -214 0
-101 -136 0
-38 -136 0
-136 -197 0
-101 -214 0
-38 -214 0
-197 -214 0
-38 -101 0
-101 -197 0
-38 -197 0
-131 -144 0
-98 -131 0
-131 -203 0
-131 -220 0
-98 -144 0
-144 -203 0
-144 -220 0
-98 -203 0
-98 -220 0
-203 -220 0
-135 -170 0
-135 -216 0
-135 -219 0
-135 -204 0
-170 -216 0
-170 -219 0
-170 -204 0
-216 -219 0
-204 -216 0
-204 -219 0
-74 -215 0
-48 -74 0
-74 -159 0
-74 -208 0
-48 -215 0
-159 -215 0
-208 -215 0
-48 -159 0
-48 -208 0
-159 -208 0
-157 -174 0
-157 -217 0
-31 -157 0
-105 -157 0
-174 -217 0
-31 -174 0
-105 -174 0
-31 -217 0
-105 -217 0
-31 -105 0
-72 -154 0
-34 -72 0
-72 -145 0
-72 -171 0
-34 -154 0
-145 -154 0
-154 -171 0
-34 -145 0
-34 -171 0
-145 -171 0
-87 -222 0
-82 -222 0
-78 -222 0
-60 -222 0
-82 -87 0
-78 -87 0
-60 -87 0
-78 -82 0
-60 -82 0
-60 -78 0
-142 -224 0
-142 -227 0
-97 -142 0
-29 -142 0
-224 -227 0
-97 -224 0
-29 -224 0
-97 -227 0
-29 -227 0
-29 -97 0
-47 -117 0
-37 -47 0
-47 -137 0
-47 -75 0
-37 -117 0
-117 -137 0
-75 -117 0
-37 -137 0
-37 -75 0
-75 -137 0
-175 -205 0
-175 -209 0
-175 -228 0
-175 -229 0
-205 -209 0
-205 -228 0
-205 -229 0
-209 -228 0
-209 -229 0
-228 -229 0
-72 -222 0
-72 -142 0
-47 -72 0
-72 -175 0
-142 -222 0
-47 -222 0
-175 -222 0
-47 -142 0
-142 -175 0
-47 -175 0
-87 -154 0
-154 -224 0
-117 -154 0
-154 -205 0
-87 -224 0
-87 -117 0
-87 -205 0
-117 -224 0
-205 -224 0
-117 -205 0
-34 -82 0
-34 -227 0
-34 -37 0
-34 -209 0
-82 -227 0
-37 -82 0
-82 -209 0
-37 -227 0
-209 -227 0
-37 -209 0
-78 -145 0
-97 -145 0
-137 -145 0
-145 -228 0
-78 -97 0
-78 -137 0
-78 -228 0
-97 -137 0
-97 -228 0
-137 -228 0
-60 -171 0
-29 -171 0
-75 -171 0
-171 -229 0
-29 -60 0
-60 -75 0
-60 -229 0
-29 -75 0
-29 -229 0
-75 -229 0
-44 -111 0
-111 -230 0
-111 -128 0
-44 -230 0
-44 -128 0
-128 -230 0
-57 -162 0
-57 -231 0
-57 -119 0
-162 -231 0
-119 -162 0
-119 -231 0
-59 -232 0
-232 -233 0
-28 -232 0
-59 -233 0
-28 -59 0
-28 -233 0
-51 -190 0
-51 -192 0
-41 -51 0
-190 -192 0
-41 -190 0
-41 -192 0
-57 -111 0
-111 -232 0
-51 -111 0
-57 -232 0
-51 -57 0
-51 -232 0
-44 -162 0
-44 -59 0
-44 -190 0
-59 -162 0
-162 -190 0
-59 -190 0
-230 -231 0
-230 -233 0
-192 -230 0
-231 -233 0
-192 -231 0
-192 -233 0
-119 -128 0
-28 -128 0
-41 -128 0
-28 -119 0
-41 -119 0
-28 -41 0
-167 -187 0
-187 -235 0
-187 -198 0
-187 -234 0
-152 -187 0
-167 -235 0
-167 -198 0
-167 -234 0
-152 -167 0
-198 -235 0
-234 -235 0
-152 -235 0
-198 -234 0
-152 -198 0
-152 -234 0
-148 -151 0
-148 -238 0
-140 -148 0
-148 -237 0
-148 -240 0
-151 -238 0
-140 -151 0
-151 -237 0
-151 -240 0
-140 -238 0
-237 -238 0
-238 -240 0
-140 -237 0
-140 -240 0
-237 -240 0
-241 -242 0
-95 -241 0
-130 -241 0
-79 -241 0
-65 -241 0
-95 -242 0
-130 -242 0
-79 -242 0
-65 -242 0
-95 -130 0
-79 -95 0
-65 -95 0
-79 -130 0
-65 -130 0
-65 -79 0
-134 -243 0
-116 -134 0
-134 -244 0
-107 -134 0
-134 -143 0
-116 -243 0
-243 -244 0
-107 -243 0
-143 -243 0
-116 -244 0
-107 -116 0
-116 -143 0
-107 -244 0
-143 -244 0
-107 -143 0
-23 -245 0
-245 -246 0
-125 -245 0
-18 -245 0
-76 -245 0
-23 -246 0
-23 -125 0
-18 -23 0
-23 -76 0
-125 -246 0
-18 -246 0
-76 -246 0
-18 -125 0
-76 -125 0
-18 -76 0
-55 -63 0
-63 -109 0
-63 -184 0
-63 -194 0
-45 -63 0
-55 -109 0
-55 -184 0
-55 -194 0
-45 -55 0
-109 -184 0
-109 -194 0
-45 -109 0
-184 -194 0
-45 -184 0
-45 -194 0
-148 -187 0
-187 -241 0
-134 -187 0
-187 -245 0
-63 -187 0
-148 -241 0
-134 -148 0
-148 -245 0
-63 -148 0
-134 -241 0
-241 -245 0
-63 -241 0
-134 -245 0
-63 -134 0
-63 -245 0
-151 -167 0
-167 -242 0
-167 -243 0
-23 -167 0
-55 -167 0
-151 -242 0
-151 -243 0
-23 -151 0
-55 -151 0
-242 -243 0
-23 -242 0
-55 -242 0
-23 -243 0
-55 -243 0
-23 -55 0
-235 -238 0
-95 -235 0
-116 -235 0
-235 -246 0
-109 -235 0
-95 -238 0
-116 -238 0
-238 -246 0
-109 -238 0
-95 -116 0
-95 -246 0
-95 -109 0
-116 -246 0
-109 -116 0
-109 -246 0
-140 -198 0
-130 -198 0
-198 -244 0
-125 -198 0
-184 -198 0
-130 -140 0
-140 -244 0
-125 -140 0
-140 -184 0
-130 -244 0
-125 -130 0
-130 -184 0
-125 -244 0
-184 -244 0
-125 -184 0
-234 -237 0
-79 -234 0
-107 -234 0
-18 -234 0
-194 -234 0
-79 -237 0
-107 -237 0
-18 -237 0
-194 -237 0
-79 -107 0
-18 -79 0
-79 -194 0
-18 -107 0
-107 -194 0
-18 -194 0
-152 -240 0
-65 -152 0
-143 -152 0
-76 -152 0
-45 -152 0
-65 -240 0
-143 -240 0
-76 -240 0
-45 -240 0
-65 -143 0
-65 -76 0
-45 -65 0
-76 -143 0
-45 -143 0
-45 -76 0
-158 -160 0
-160 -163 0
-160 -169 0
-160 -173 0
-158 -163 0
-158 -169 0
-158 -173 0
-163 -169 0
-163 -173 0
-169 -173 0
-88 -247 0
-247 -248 0
-150 -247 0
-138 -247 0
-88 -248 0
-88 -150 0
-88 -138 0
-150 -248 0
-138 -248 0
-138 -150 0
-53 -249 0
-53 -250 0
-42 -53 0
-53 -221 0
-249 -250 0
-42 -249 0
-221 -249 0
-42 -250 0
-221 -250 0
-42 -221 0
-179 -185 0
-168 -179 0
-179 -186 0
-179 -236 0
-168 -185 0
-185 -186 0
-185 -236 0
-168 -186 0
-168 -236 0
-186 -236 0
-149 -199 0
-153 -199 0
-147 -199 0
-199 -239 0
-149 -153 0
-147 -149 0
-149 -239 0
-147 -153 0
-153 -239 0
-147 -239 0
-160 -247 0
-53 -160 0
-160 -179 0
-160 -199 0
-53 -247 0
-179 -247 0
-199 -247 0
-53 -179 0
-53 -199 0
-179 -199 0
-88 -158 0
-158 -249 0
-158 -185 0
-149 -158 0
-88 -249 0
-88 -185 0
-88 -149 0
-185 -249 0
-149 -249 0
-149 -185 0
-163 -248 0
-163 -250 0
-163 -168 0
-153 -163 0
-248 -250 0
-168 -248 0
-153 -248 0
-168 -250 0
-153 -250 0
-153 -168 0
-150 -169 0
-42 -169 0
-169 -186 0
-147 -169 0
-42 -150 0
-150 -186 0
-147 -150 0
-42 -186 0
-42 -147 0
-147 -186 0
-138 -173 0
-173 -221 0
-173 -236 0
-173 -239 0
-138 -221 0
-138 -236 0
-138 -239 0
-221 -236 0
-221 -239 0
-236 -239 0
-83 -86 0
-83 -177 0
-83 -188 0
-83 -183 0
-83 -195 0
-86 -177 0
-86 -188 0
-86 -183 0
-86 -195 0
-177 -188 0
-177 -183 0
-177 -195 0
-183 -188 0
-188 -195 0
-183 -195 0
-124 -269 0
-269 -271 0
-206 -269 0
-225 -269 0
-210 -269 0
-124 -271 0
-124 -206 0
-124 -225 0
-124 -210 0
-206 -271 0
-225 -271 0
-210 -271 0
-206 -225 0
-206 -210 0
-210 -225 0
-118 -251 0
-132 -251 0
-73 -251 0
-64 -251 0
-156 -251 0
-118 -132 0
-73 -118 0
-64 -118 0
-118 -156 0
-73 -132 0
-64 -132 0
-132 -156 0
-64 -73 0
-73 -156 0
-64 -156 0
-89 -252 0
-252 -253 0
-252 -254 0
-16 -252 0
-176 -252 0
-89 -253 0
-89 -254 0
-16 -89 0
-89 -176 0
-253 -254 0
-16 -253 0
-176 -253 0
-16 -254 0
-176 -254 0
-16 -176 0
-102 -180 0
-99 -180 0
-49 -180 0
-180 -255 0
-180 -218 0
-99 -102 0
-49 -102 0
-102 -255 0
-102 -218 0
-49 -99 0
-99 -255 0
-99 -218 0
-49 -255 0
-49 -218 0
-218 -255 0
-39 -200 0
-200 -202 0
-161 -200 0
-164 -200 0
-32 -200 0
-39 -202 0
-39 -161 0
-39 -164 0
-32 -39 0
-161 -202 0
-164 -202 0
-32 -202 0
-161 -164 0
-32 -161 0
-32 -164 0
-83 -269 0
-83 -251 0
-83 -252 0
-83 -180 0
-83 -200 0
-251 -269 0
-252 -269 0
-180 -269 0
-200 -269 0
-251 -252 0
-180 -251 0
-200 -251 0
-180 -252 0
-200 -252 0
-180 -200 0
-86 -124 0
-86 -118 0
-86 -89 0
-86 -102 0
-39 -86 0
-118 -124 0
-89 -124 0
-102 -124 0
-39 -124 0
-89 -118 0
-102 -118 0
-39 -118 0
-89 -102 0
-39 -89 0
-39 -102 0
-177 -271 0
-132 -177 0
-177 -253 0
-99 -177 0
-177 -202 0
-132 -271 0
-253 -271 0
-99 -271 0
-202 -271 0
-132 -253 0
-99 -132 0
-132 -202 0
-99 -253 0
-202 -253 0
-99 -202 0
-188 -206 0
-73 -188 0
-188 -254 0
-49 -188 0
-161 -188 0
-73 -206 0
-206 -254 0
-49 -206 0
-161 -206 0
-73 -254 0
-49 -73 0
-73 -161 0
-49 -254 0
-161 -254 0
-49 -161 0
-183 -225 0
-64 -183 0
-16 -183 0
-183 -255 0
-164 -183 0
-64 -225 0
-16 -225 0
-225 -255 0
-164 -225 0
-16 -64 0
-64 -255 0
-64 -164 0
-16 -255 0
-16 -164 0
-164 -255 0
-195 -210 0
-156 -195 0
-176 -195 0
-195 -218 0
-32 -195 0
-156 -210 0
-176 -210 0
-210 -218 0
-32 -210 0
-156 -176 0
-156 -218 0
-32 -156 0
-176 -218 0
-32 -176 0
-32 -218 0
-68 -120 0
-113 -120 0
-120 -123 0
-70 -120 0
-112 -120 0
-120 -256 0
-120 -165 0
-68 -113 0
-68 -123 0
-68 -70 0
-68 -112 0
-68 -256 0
-68 -165 0
-113 -123 0
-70 -113 0
-112 -113 0
-113 -256 0
-113 -165 0
-70 -123 0
-112 -123 0
-123 -256 0
-123 -165 0
-70 -112 0
-70 -256 0
-70 -165 0
-112 -256 0
-112 -165 0
-165 -256 0
-127 -257 0
-257 -258 0
-133 -257 0
-122 -257 0
-257 -259 0
-257 -260 0
-146 -257 0
-127 -258 0
-127 -133 0
-122 -127 0
-127 -259 0
-127 -260 0
-127 -146 0
-133 -258 0
-122 -258 0
-258 -259 0
-258 -260 0
-146 -258 0
-122 -133 0
-133 -259 0
-133 -260 0
-133 -146 0
-122 -259 0
-122 -260 0
-122 -146 0
-259 -260 0
-146 -259 0
-146 -260 0
-261 -262 0
-96 -261 0
-90 -261 0
-261 -263 0
-81 -261 0
-67 -261 0
-58 -261 0
-96 -262 0
-90 -262 0
-262 -263 0
-81 -262 0
-67 -262 0
-58 -262 0
-90 -96 0
-96 -263 0
-81 -96 0
-67 -96 0
-58 -96 0
-90 -263 0
-81 -90 0
-67 -90 0
-58 -90 0
-81 -263 0
-67 -263 0
-58 -263 0
-67 -81 0
-58 -81 0
-58 -67 0
-50 -52 0
-52 -191 0
-52 -193 0
-52 -264 0
-46 -52 0
-40 -52 0
-52 -265 0
-50 -191 0
-50 -193 0
-50 -264 0
-46 -50 0
-40 -50 0
-50 -265 0
-191 -193 0
-191 -264 0
-46 -191 0
-40 -191 0
-191 -265 0
-193 -264 0
-46 -193 0
-40 -193 0
-193 -265 0
-46 -264 0
-40 -264 0
-264 -265 0
-40 -46 0
-46 -265 0
-40 -265 0
-36 -266 0
-36 -71 0
-36 -267 0
-36 -155 0
-36 -268 0
-33 -36 0
-27 -36 0
-71 -266 0
-266 -267 0
-155 -266 0
-266 -268 0
-33 -266 0
-27 -266 0
-71 -267 0
-71 -155 0
-71 -268 0
-33 -71 0
-27 -71 0
-155 -267 0
-267 -268 0
-33 -267 0
-27 -267 0
-155 -268 0
-33 -155 0
-27 -155 0
-33 -268 0
-27 -268 0
-27 -33 0
-22 -172 0
-172 -223 0
-21 -172 0
-85 -172 0
-17 -172 0
-84 -172 0
-172 -178 0
-22 -223 0
-21 -22 0
-22 -85 0
-17 -22 0
-22 -84 0
-22 -178 0
-21 -223 0
-85 -223 0
-17 -223 0
-84 -223 0
-178 -223 0
-21 -85 0
-17 -21 0
-21 -84 0
-21 -178 0
-17 -85 0
-84 -85 0
-85 -178 0
-17 -84 0
-17 -178 0
-84 -178 0
-61 -181 0
-61 -110 0
-61 -189 0
-61 -182 0
-61 -196 0
-61 -270 0
-61 -272 0
-110 -181 0
-181 -189 0
-181 -182 0
-181 -196 0
-181 -270 0
-181 -272 0
-110 -189 0
-110 -182 0
-110 -196 0
-110 -270 0
-110 -272 0
-182 -189 0
-189 -196 0
-189 -270 0
-189 -272 0
-182 -196 0
-182 -270 0
-182 -272 0
-196 -270 0
-196 -272 0
-270 -272 0
-91 -201 0
-141 -201 0
-201 -207 0
-201 -226 0
-201 -211 0
-15 -201 0
-14 -201 0
-91 -141 0
-91 -207 0
-91 -226 0
-91 -211 0
-15 -91 0
-14 -91 0
-141 -207 0
-141 -226 0
-141 -211 0
-15 -141 0
-14 -141 0
-207 -226 0
-207 -211 0
-15 -207 0
-14 -207 0
-211 -226 0
-15 -226 0
-14 -226 0
-15 -211 0
-14 -211 0
-14 -15 0
-120 -257 0
-120 -261 0
-52 -120 0
-36 -120 0
-120 -172 0
-61 -120 0
-120 -201 0
-257 -261 0
-52 -257 0
-36 -257 0
-172 -257 0
-61 -257 0
-201 -257 0
-52 -261 0
-36 -261 0
-172 -261 0
-61 -261 0
-201 -261 0
-36 -52 0
-52 -172 0
-52 -61 0
-52 -201 0
-36 -172 0
-36 -61 0
-36 -201 0
-61 -172 0
-172 -201 0
-61 -201 0
-68 -127 0
-68 -262 0
-50 -68 0
-68 -266 0
-22 -68 0
-68 -181 0
-68 -91 0
-127 -262 0
-50 -127 0
-127 -266 0
-22 -127 0
-127 -181 0
-91 -127 0
-50 -262 0
-262 -266 0
-22 -262 0
-181 -262 0
-91 -262 0
-50 -266 0
-22 -50 0
-50 -181 0
-50 -91 0
-22 -266 0
-181 -266 0
-91 -266 0
-22 -181 0
-22 -91 0
-91 -181 0
-113 -258 0
-96 -113 0
-113 -191 0
-71 -113 0
-113 -223 0
-110 -113 0
-113 -141 0
-96 -258 0
-191 -258 0
-71 -258 0
-223 -258 0
-110 -258 0
-141 -258 0
-96 -191 0
-71 -96 0
-96 -223 0
-96 -110 0
-96 -141 0
-71 -191 0
-191 -223 0
-110 -191 0
-141 -191 0
-71 -223 0
-71 -110 0
-71 -141 0
-110 -223 0
-141 -223 0
-110 -141 0
-123 -133 0
-90 -123 0
-123 -193 0
-123 -267 0
-21 -123 0
-123 -189 0
-123 -207 0
-90 -133 0
-133 -193 0
-133 -267 0
-21 -133 0
-133 -189 0
-133 -207 0
-90 -193 0
-90 -267 0
-21 -90 0
-90 -189 0
-90 -207 0
-193 -267 0
-21 -193 0
-189 -193 0
-193 -207 0
-21 -267 0
-189 -267 0
-207 -267 0
-21 -189 0
-21 -207 0
-189 -207 0
-70 -122 0
-70 -263 0
-70 -264 0
-70 -155 0
-70 -85 0
-70 -182 0
-70 -226 0
-122 -263 0
-122 -264 0
-122 -155 0
-85 -122 0
-122 -182 0
-122 -226 0
-263 -264 0
-155 -263 0
-85 -263 0
-182 -263 0
-226 -263 0
-155 -264 0
-85 -264 0
-182 -264 0
-226 -264 0
-85 -155 0
-155 -182 0
-155 -226 0
-85 -182 0
-85 -226 0
-182 -226 0
-112 -259 0
-81 -112 0
-46 -112 0
-112 -268 0
-17 -112 0
-112 -196 0
-112 -211 0
-81 -259 0
-46 -259 0
-259 -268 0
-17 -259 0
-196 -259 0
-211 -259 0
-46 -81 0
-81 -268 0
-17 -81 0
-81 -196 0
-81 -211 0
-46 -268 0
-17 -46 0
-46 -196 0
-46 -211 0
-17 -268 0
-196 -268 0
-211 -268 0
-17 -196 0
-17 -211 0
-196 -211 0
-256 -260 0
-67 -256 0
-40 -256 0
-33 -256 0
-84 -256 0
-256 -270 0
-15 -256 0
-67 -260 0
-40 -260 0
-33 -260 0
-84 -260 0
-260 -270 0
-15 -260 0
-40 -67 0
-33 -67 0
-67 -84 0
-67 -270 0
-15 -67 0
-33 -40 0
-40 -84 0
-40 -270 0
-15 -40 0
-33 -84 0
-33 -270 0
-15 -33 0
-84 -270 0
-15 -84 0
-15 -270 0
-146 -165 0
-58 -165 0
-165 -265 0
-27 -165 0
-165 -178 0
-165 -272 0
-14 -165 0
-58 -146 0
-146 -265 0
-27 -146 0
-146 -178 0
-146 -272 0
-14 -146 0
-58 -265 0
-27 -58 0
-58 -178 0
-58 -272 0
-14 -58 0
-27 -265 0
-178 -265 0
-265 -272 0
-14 -265 0
-27 -178 0
-27 -272 0
-14 -27 0
-178 -272 0
-14 -178 0
-14 -272 0
-80 -94 0
-13 -94 0
-66 -94 0
-12 -94 0
-94 -100 0
-13 -80 0
-66 -80 0
-12 -80 0
-80 -100 0
-13 -66 0
-12 -13 0
-13 -100 0
-12 -66 0
-66 -100 0
-12 -100 0
-106 -115 0
-115 -166 0
-11 -115 0
-10 -115 0
-24 -115 0
-106 -166 0
-11 -106 0
-10 -106 0
-24 -106 0
-11 -166 0
-10 -166 0
-24 -166 0
-10 -11 0
-11 -24 0
-10 -24 0
-9 -19 0
-8 -9 0
-9 -77 0
-9 -62 0
-9 -54 0
-8 -19 0
-19 -77 0
-19 -62 0
-19 -54 0
-8 -77 0
-8 -62 0
-8 -54 0
-62 -77 0
-54 -77 0
-54 -62 0
-7 -108 0
-6 -108 0
-43 -108 0
-5 -108 0
-4 -108 0
-6 -7 0
-7 -43 0
-5 -7 0
-4 -7 0
-6 -43 0
-5 -6 0
-4 -6 0
-5 -43 0
-4 -43 0
-4 -5 0
-3 -129 0
-56 -129 0
-2 -129 0
-30 -129 0
-26 -129 0
-3 -56 0
-2 -3 0
-3 -30 0
-3 -26 0
-2 -56 0
-30 -56 0
-26 -56 0
-2 -30 0
-2 -26 0
-26 -30 0
-1 -121 0
-1 -20 0
-1 -35 0
-1 -69 0
-1 -114 0
-20 -121 0
-35 -121 0
-69 -121 0
-114 -121 0
-20 -35 0
-20 -69 0
-20 -114 0
-35 -69 0
-35 -114 0
-69 -114 0
-94 -115 0
-9 -94 0
-94 -108 0
-94 -129 0
-1 -94 0
-9 -115 0
-108 -115 0
-115 -129 0
-1 -115 0
-9 -108 0
-9 -129 0
-1 -9 0
-108 -129 0
-1 -108 0
-1 -129 0
-80 -106 0
-19 -80 0
-7 -80 0
-3 -80 0
-80 -121 0
-19 -106 0
-7 -106 0
-3 -106 0
-106 -121 0
-7 -19 0
-3 -19 0
-19 -121 0
-3 -7 0
-7 -121 0
-3 -121 0
-13 -166 0
-8 -13 0
-6 -13 0
-13 -56 0
-13 -20 0
-8 -166 0
-6 -166 0
-56 -166 0
-20 -166 0
-6 -8 0
-8 -56 0
-8 -20 0
-6 -56 0
-6 -20 0
-20 -56 0
-11 -66 0
-66 -77 0
-43 -66 0
-2 -66 0
-35 -66 0
-11 -77 0
-11 -43 0
-2 -11 0
-11 -35 0
-43 -77 0
-2 -77 0
-35 -77 0
-2 -43 0
-35 -43 0
-2 -35 0
-10 -12 0
-12 -62 0
-5 -12 0
-12 -30 0
-12 -69 0
-10 -62 0
-5 -10 0
-10 -30 0
-10 -69 0
-5 -62 0
-30 -62 0
-62 -69 0
-5 -30 0
-5 -69 0
-30 -69 0
-24 -100 0
-54 -100 0
-4 -100 0
-26 -100 0
-100 -114 0
-24 -54 0
-4 -24 0
-24 -26 0
-24 -114 0
-4 -54 0
-26 -54 0
-54 -114 0
-4 -26 0
-4 -114 0
-26 -114 0
